single_objective/SL-DABL/OP/problems/op/OPLib-master/instances/gen4/pcb442-gen4-20.oplib
NAME : pcb442
COMMENT : Drilling problem (Groetschel/Juenger/Reinelt)
TYPE : OP
DIMENSION : 442
COST_LIMIT : 10156
EDGE_WEIGHT_TYPE : EUC_2D
NODE_COORD_SECTION
1 2.00000e+02 4.00000e+02
2 2.00000e+02 5.00000e+02
3 2.00000e+02 6.00000e+02
4 2.00000e+02 7.00000e+02
5 2.00000e+02 8.00000e+02
6 2.00000e+02 9.00000e+02
7 2.00000e+02 1.00000e+03
8 2.00000e+02 1.10000e+03
9 2.00000e+02 1.20000e+03
10 2.00000e+02 1.30000e+03
11 2.00000e+02 1.40000e+03
12 2.00000e+02 1.50000e+03
13 2.00000e+02 1.60000e+03
14 2.00000e+02 1.70000e+03
15 2.00000e+02 1.80000e+03
16 2.00000e+02 1.90000e+03
17 2.00000e+02 2.00000e+03
18 2.00000e+02 2.10000e+03
19 2.00000e+02 2.20000e+03
20 2.00000e+02 2.30000e+03
21 2.00000e+02 2.40000e+03
22 2.00000e+02 2.50000e+03
23 2.00000e+02 2.60000e+03
24 2.00000e+02 2.70000e+03
25 2.00000e+02 2.80000e+03
26 2.00000e+02 2.90000e+03
27 2.00000e+02 3.00000e+03
28 2.00000e+02 3.10000e+03
29 2.00000e+02 3.20000e+03
30 2.00000e+02 3.30000e+03
31 2.00000e+02 3.40000e+03
32 2.00000e+02 3.50000e+03
33 2.00000e+02 3.60000e+03
34 3.00000e+02 4.00000e+02
35 3.00000e+02 5.00000e+02
36 3.00000e+02 6.00000e+02
37 3.00000e+02 7.00000e+02
38 3.00000e+02 8.00000e+02
39 3.00000e+02 9.00000e+02
40 3.00000e+02 1.00000e+03
41 3.00000e+02 1.10000e+03
42 3.00000e+02 1.20000e+03
43 3.00000e+02 1.30000e+03
44 3.00000e+02 1.40000e+03
45 3.00000e+02 1.50000e+03
46 3.00000e+02 1.60000e+03
47 3.00000e+02 1.70000e+03
48 3.00000e+02 1.80000e+03
49 3.00000e+02 1.90000e+03
50 3.00000e+02 2.00000e+03
51 3.00000e+02 2.10000e+03
52 3.00000e+02 2.20000e+03
53 3.00000e+02 2.30000e+03
54 3.00000e+02 2.40000e+03
55 3.00000e+02 2.50000e+03
56 3.00000e+02 2.60000e+03
57 3.00000e+02 2.70000e+03
58 3.00000e+02 2.80000e+03
59 3.00000e+02 2.90000e+03
60 3.00000e+02 3.00000e+03
61 3.00000e+02 3.10000e+03
62 3.00000e+02 3.20000e+03
63 3.00000e+02 3.30000e+03
64 3.00000e+02 3.40000e+03
65 3.00000e+02 3.50000e+03
66 4.00000e+02 4.00000e+02
67 4.00000e+02 5.00000e+02
68 4.00000e+02 6.00000e+02
69 4.00000e+02 7.00000e+02
70 4.00000e+02 8.00000e+02
71 4.00000e+02 9.00000e+02
72 4.00000e+02 1.00000e+03
73 4.00000e+02 1.10000e+03
74 4.00000e+02 1.20000e+03
75 4.00000e+02 1.30000e+03
76 4.00000e+02 1.40000e+03
77 4.00000e+02 1.50000e+03
78 4.00000e+02 1.60000e+03
79 4.00000e+02 1.70000e+03
80 4.00000e+02 1.80000e+03
81 4.00000e+02 1.90000e+03
82 4.00000e+02 2.00000e+03
83 4.00000e+02 2.10000e+03
84 4.00000e+02 2.20000e+03
85 4.00000e+02 2.30000e+03
86 4.00000e+02 2.40000e+03
87 4.00000e+02 2.50000e+03
88 4.00000e+02 2.60000e+03
89 4.00000e+02 2.70000e+03
90 4.00000e+02 2.80000e+03
91 4.00000e+02 2.90000e+03
92 4.00000e+02 3.00000e+03
93 4.00000e+02 3.10000e+03
94 4.00000e+02 3.20000e+03
95 4.00000e+02 3.30000e+03
96 4.00000e+02 3.40000e+03
97 4.00000e+02 3.50000e+03
98 4.00000e+02 3.60000e+03
99 5.00000e+02 1.50000e+03
100 5.00000e+02 1.82900e+03
101 5.00000e+02 3.10000e+03
102 6.00000e+02 4.00000e+02
103 7.00000e+02 3.00000e+02
104 7.00000e+02 6.00000e+02
105 7.00000e+02 1.50000e+03
106 7.00000e+02 1.60000e+03
107 7.00000e+02 1.80000e+03
108 7.00000e+02 2.10000e+03
109 7.00000e+02 2.40000e+03
110 7.00000e+02 2.70000e+03
111 7.00000e+02 3.00000e+03
112 7.00000e+02 3.30000e+03
113 7.00000e+02 3.60000e+03
114 8.00000e+02 3.00000e+02
115 8.00000e+02 6.00000e+02
116 8.00000e+02 1.03000e+03
117 8.00000e+02 1.50000e+03
118 8.00000e+02 1.80000e+03
119 8.00000e+02 2.10000e+03
120 8.00000e+02 2.40000e+03
121 8.00000e+02 2.60000e+03
122 8.00000e+02 2.70000e+03
123 8.00000e+02 3.00000e+03
124 8.00000e+02 3.30000e+03
125 8.00000e+02 3.60000e+03
126 9.00000e+02 3.00000e+02
127 9.00000e+02 6.00000e+02
128 9.00000e+02 1.50000e+03
129 9.00000e+02 1.80000e+03
130 9.00000e+02 2.10000e+03
131 9.00000e+02 2.40000e+03
132 9.00000e+02 2.70000e+03
133 9.00000e+02 3.00000e+03
134 9.00000e+02 3.30000e+03
135 9.00000e+02 3.60000e+03
136 1.00000e+03 3.00000e+02
137 1.00000e+03 6.00000e+02
138 1.00000e+03 1.10000e+03
139 1.00000e+03 1.50000e+03
140 1.00000e+03 1.62900e+03
141 1.00000e+03 1.80000e+03
142 1.00000e+03 2.10000e+03
143 1.00000e+03 2.40000e+03
144 1.00000e+03 2.60000e+03
145 1.00000e+03 2.70000e+03
146 1.00000e+03 3.00000e+03
147 1.00000e+03 3.30000e+03
148 1.00000e+03 3.60000e+03
149 1.10000e+03 3.00000e+02
150 1.10000e+03 6.00000e+02
151 1.10000e+03 7.00000e+02
152 1.10000e+03 9.00000e+02
153 1.10000e+03 1.50000e+03
154 1.10000e+03 1.80000e+03
155 1.10000e+03 2.10000e+03
156 1.10000e+03 2.40000e+03
157 1.10000e+03 2.70000e+03
158 1.10000e+03 3.00000e+03
159 1.10000e+03 3.30000e+03
160 1.10000e+03 3.60000e+03
161 1.20000e+03 3.00000e+02
162 1.20000e+03 6.00000e+02
163 1.20000e+03 1.50000e+03
164 1.20000e+03 1.70000e+03
165 1.20000e+03 1.80000e+03
166 1.20000e+03 2.10000e+03
167 1.20000e+03 2.40000e+03
168 1.20000e+03 2.70000e+03
169 1.20000e+03 3.00000e+03
170 1.20000e+03 3.30000e+03
171 1.20000e+03 3.60000e+03
172 1.30000e+03 3.00000e+02
173 1.30000e+03 6.00000e+02
174 1.30000e+03 7.00000e+02
175 1.30000e+03 1.13000e+03
176 1.30000e+03 1.50000e+03
177 1.30000e+03 1.80000e+03
178 1.30000e+03 2.10000e+03
179 1.30000e+03 2.20000e+03
180 1.30000e+03 2.40000e+03
181 1.30000e+03 2.70000e+03
182 1.30000e+03 3.00000e+03
183 1.30000e+03 3.30000e+03
184 1.30000e+03 3.60000e+03
185 1.40000e+03 3.00000e+02
186 1.40000e+03 6.00000e+02
187 1.40000e+03 9.30000e+02
188 1.40000e+03 1.50000e+03
189 1.40000e+03 1.80000e+03
190 1.40000e+03 2.00000e+03
191 1.40000e+03 2.10000e+03
192 1.40000e+03 2.40000e+03
193 1.40000e+03 2.50000e+03
194 1.40000e+03 2.70000e+03
195 1.40000e+03 2.82000e+03
196 1.40000e+03 2.90000e+03
197 1.40000e+03 3.00000e+03
198 1.40000e+03 3.30000e+03
199 1.40000e+03 3.60000e+03
200 1.50000e+03 1.50000e+03
201 1.50000e+03 1.80000e+03
202 1.50000e+03 1.90000e+03
203 1.50000e+03 2.10000e+03
204 1.50000e+03 2.40000e+03
205 1.50000e+03 2.70000e+03
206 1.50000e+03 2.80000e+03
207 1.50000e+03 2.86000e+03
208 1.50000e+03 3.00000e+03
209 1.50000e+03 3.30000e+03
210 1.50000e+03 3.60000e+03
211 1.60000e+03 1.10000e+03
212 1.60000e+03 1.30000e+03
213 1.60000e+03 1.50000e+03
214 1.60000e+03 1.80000e+03
215 1.60000e+03 2.10000e+03
216 1.60000e+03 2.40000e+03
217 1.60000e+03 2.70000e+03
218 1.60000e+03 3.00000e+03
219 1.60000e+03 3.30000e+03
220 1.60000e+03 3.60000e+03
221 1.70000e+03 1.20000e+03
222 1.70000e+03 1.50000e+03
223 1.70000e+03 1.80000e+03
224 1.70000e+03 2.10000e+03
225 1.70000e+03 2.40000e+03
226 1.70000e+03 3.60000e+03
227 1.80000e+03 3.00000e+02
228 1.80000e+03 6.00000e+02
229 1.80000e+03 1.23000e+03
230 1.80000e+03 1.50000e+03
231 1.80000e+03 1.80000e+03
232 1.80000e+03 2.10000e+03
233 1.80000e+03 2.40000e+03
234 1.90000e+03 3.00000e+02
235 1.90000e+03 6.00000e+02
236 1.90000e+03 3.00000e+03
237 1.90000e+03 3.52000e+03
238 2.00000e+03 3.00000e+02
239 2.00000e+03 3.70000e+02
240 2.00000e+03 6.00000e+02
241 2.00000e+03 8.00000e+02
242 2.00000e+03 9.00000e+02
243 2.00000e+03 1.00000e+03
244 2.00000e+03 1.10000e+03
245 2.00000e+03 1.20000e+03
246 2.00000e+03 1.30000e+03
247 2.00000e+03 1.40000e+03
248 2.00000e+03 1.50000e+03
249 2.00000e+03 1.60000e+03
250 2.00000e+03 1.70000e+03
251 2.00000e+03 1.80000e+03
252 2.00000e+03 1.90000e+03
253 2.00000e+03 2.00000e+03
254 2.00000e+03 2.10000e+03
255 2.00000e+03 2.20000e+03
256 2.00000e+03 2.30000e+03
257 2.00000e+03 2.40000e+03
258 2.00000e+03 2.50000e+03
259 2.00000e+03 2.60000e+03
260 2.00000e+03 2.70000e+03
261 2.00000e+03 2.80000e+03
262 2.00000e+03 2.90000e+03
263 2.00000e+03 3.00000e+03
264 2.00000e+03 3.10000e+03
265 2.00000e+03 3.50000e+03
266 2.10000e+03 3.00000e+02
267 2.10000e+03 6.00000e+02
268 2.10000e+03 3.20000e+03
269 2.20000e+03 3.00000e+02
270 2.20000e+03 4.69000e+02
271 2.20000e+03 6.00000e+02
272 2.20000e+03 3.20000e+03
273 2.30000e+03 3.00000e+02
274 2.30000e+03 6.00000e+02
275 2.30000e+03 3.40000e+03
276 2.40000e+03 3.00000e+02
277 2.40000e+03 6.00000e+02
278 2.40000e+03 2.10000e+03
279 2.50000e+03 3.00000e+02
280 2.50000e+03 8.00000e+02
281 2.60000e+03 4.00000e+02
282 2.60000e+03 5.00000e+02
283 2.60000e+03 8.00000e+02
284 2.60000e+03 9.00000e+02
285 2.60000e+03 1.00000e+03
286 2.60000e+03 1.10000e+03
287 2.60000e+03 1.20000e+03
288 2.60000e+03 1.30000e+03
289 2.60000e+03 1.40000e+03
290 2.60000e+03 1.50000e+03
291 2.60000e+03 1.60000e+03
292 2.60000e+03 1.70000e+03
293 2.60000e+03 1.80000e+03
294 2.60000e+03 1.90000e+03
295 2.60000e+03 2.00000e+03
296 2.60000e+03 2.10000e+03
297 2.60000e+03 2.20000e+03
298 2.60000e+03 2.30000e+03
299 2.60000e+03 2.40000e+03
300 2.60000e+03 2.50000e+03
301 2.60000e+03 2.60000e+03
302 2.60000e+03 2.70000e+03
303 2.60000e+03 2.80000e+03
304 2.60000e+03 2.90000e+03
305 2.60000e+03 3.00000e+03
306 2.60000e+03 3.10000e+03
307 2.60000e+03 3.40000e+03
308 2.70000e+03 7.00000e+02
309 2.70000e+03 8.00000e+02
310 2.70000e+03 9.00000e+02
311 2.70000e+03 1.00000e+03
312 2.70000e+03 1.10000e+03
313 2.70000e+03 1.20000e+03
314 2.70000e+03 1.30000e+03
315 2.70000e+03 1.40000e+03
316 2.70000e+03 1.50000e+03
317 2.70000e+03 1.60000e+03
318 2.70000e+03 1.70000e+03
319 2.70000e+03 1.80000e+03
320 2.70000e+03 1.90000e+03
321 2.70000e+03 2.00000e+03
322 2.70000e+03 2.10000e+03
323 2.70000e+03 2.20000e+03
324 2.70000e+03 2.30000e+03
325 2.70000e+03 2.50000e+03
326 2.70000e+03 2.60000e+03
327 2.70000e+03 2.70000e+03
328 2.70000e+03 2.80000e+03
329 2.70000e+03 2.90000e+03
330 2.70000e+03 3.00000e+03
331 2.70000e+03 3.10000e+03
332 2.70000e+03 3.20000e+03
333 2.70000e+03 3.30000e+03
334 2.70000e+03 3.40000e+03
335 2.70000e+03 3.50000e+03
336 2.70000e+03 3.60000e+03
337 2.70000e+03 3.70000e+03
338 2.70000e+03 3.80000e+03
339 2.80000e+03 9.00000e+02
340 2.80000e+03 1.13000e+03
341 2.90000e+03 4.00000e+02
342 2.90000e+03 5.00000e+02
343 2.90000e+03 1.40000e+03
344 2.90000e+03 2.40000e+03
345 2.90000e+03 3.00000e+03
346 3.00000e+03 7.00000e+02
347 3.00000e+03 8.00000e+02
348 3.00000e+03 9.00000e+02
349 3.00000e+03 1.00000e+03
350 3.00000e+03 1.10000e+03
351 3.00000e+03 1.20000e+03
352 3.00000e+03 1.30000e+03
353 3.00000e+03 1.50000e+03
354 3.00000e+03 1.60000e+03
355 3.00000e+03 1.70000e+03
356 3.00000e+03 1.80000e+03
357 3.00000e+03 1.90000e+03
358 3.00000e+03 2.00000e+03
359 3.00000e+03 2.10000e+03
360 3.00000e+03 2.20000e+03
361 3.00000e+03 2.30000e+03
362 3.00000e+03 2.50000e+03
363 3.00000e+03 2.60000e+03
364 3.00000e+03 2.70000e+03
365 3.00000e+03 2.80000e+03
366 3.00000e+03 2.90000e+03
367 3.00000e+03 3.00000e+03
368 3.00000e+03 3.10000e+03
369 3.00000e+03 3.20000e+03
370 3.00000e+03 3.30000e+03
371 3.00000e+03 3.40000e+03
372 3.00000e+03 3.50000e+03
373 3.00000e+03 3.60000e+03
374 3.00000e+03 3.70000e+03
375 3.00000e+03 3.80000e+03
376 1.50000e+02 3.50000e+03
377 1.50000e+02 3.55000e+03
378 4.69000e+02 2.55000e+03
379 4.69000e+02 3.35000e+03
380 4.69000e+02 3.45000e+03
381 5.40000e+02 2.33000e+03
382 5.40000e+02 2.43000e+03
383 6.20000e+02 3.65000e+03
384 6.20000e+02 3.70900e+03
385 7.50000e+02 2.55000e+03
386 8.50000e+02 5.20000e+02
387 8.50000e+02 7.00000e+02
388 8.50000e+02 2.28000e+03
389 9.39000e+02 7.40000e+02
390 9.50000e+02 2.22000e+03
391 9.10000e+02 2.60000e+03
392 1.05000e+03 1.05000e+03
393 1.15000e+03 1.35000e+03
394 1.17000e+03 2.28000e+03
395 1.22000e+03 2.21000e+03
396 1.35000e+03 7.50000e+02
397 1.35000e+03 1.70000e+03
398 1.35000e+03 2.14000e+03
399 1.45000e+03 7.70000e+02
400 1.55000e+03 3.00000e+02
401 1.55000e+03 5.00000e+02
402 1.55000e+03 1.85000e+03
403 1.65000e+03 1.05000e+03
404 1.69000e+03 2.68000e+03
405 1.71000e+03 3.10000e+02
406 1.71000e+03 5.10000e+02
407 1.75000e+03 7.50000e+02
408 1.79000e+03 2.58000e+03
409 1.72000e+03 2.61000e+03
410 1.79000e+03 3.33000e+03
411 1.72000e+03 3.40900e+03
412 1.82900e+03 2.70000e+03
413 1.82900e+03 2.80000e+03
414 1.82900e+03 3.45000e+03
415 2.06000e+03 1.65000e+03
416 2.05000e+03 3.15000e+03
417 2.17000e+03 1.90000e+03
418 2.11000e+03 2.00000e+03
419 2.12000e+03 2.75000e+03
420 2.15000e+03 3.25000e+03
421 2.29000e+03 1.40000e+03
422 2.22000e+03 2.82000e+03
423 2.28000e+03 3.25000e+03
424 2.39000e+03 1.30000e+03
425 2.32000e+03 1.50000e+03
426 2.45000e+03 7.10000e+02
427 2.62000e+03 3.65000e+03
428 2.75000e+03 5.20000e+02
429 2.76000e+03 2.36000e+03
430 2.85000e+03 2.20000e+03
431 2.85000e+03 2.70000e+03
432 2.85000e+03 3.35000e+03
433 2.93000e+03 9.50000e+02
434 2.95000e+03 1.75000e+03
435 2.95000e+03 2.05000e+03
436 5.20000e+02 3.20000e+03
437 2.30000e+03 3.50000e+03
438 2.32000e+03 3.15000e+03
439 5.30000e+02 2.10000e+03
440 2.55000e+03 7.10000e+02
441 7.50000e+02 4.90000e+02
442 0.00000e+00 0.00000e+00
NODE_SCORE_SECTION
1 74
2 15
3 56
4 97
5 38
6 79
7 20
8 61
9 2
10 43
11 84
12 25
13 66
14 7
15 48
16 89
17 30
18 71
19 12
20 53
21 94
22 35
23 76
24 17
25 58
26 99
27 40
28 81
29 22
30 63
31 4
32 45
33 86
34 27
35 68
36 9
37 50
38 91
39 32
40 73
41 14
42 55
43 96
44 37
45 78
46 19
47 60
48 1
49 42
50 83
51 24
52 65
53 6
54 47
55 88
56 29
57 70
58 11
59 52
60 93
61 34
62 75
63 16
64 57
65 98
66 39
67 80
68 21
69 62
70 3
71 44
72 85
73 26
74 67
75 8
76 49
77 90
78 31
79 72
80 13
81 54
82 95
83 36
84 77
85 18
86 59
87 100
88 41
89 82
90 23
91 64
92 5
93 46
94 87
95 28
96 69
97 10
98 51
99 92
100 33
101 74
102 15
103 56
104 97
105 38
106 79
107 20
108 61
109 2
110 43
111 84
112 25
113 66
114 7
115 48
116 89
117 30
118 71
119 12
120 53
121 94
122 35
123 76
124 17
125 58
126 99
127 40
128 81
129 22
130 63
131 4
132 45
133 86
134 27
135 68
136 9
137 50
138 91
139 32
140 73
141 14
142 55
143 96
144 37
145 78
146 19
147 60
148 1
149 42
150 83
151 24
152 65
153 6
154 47
155 88
156 29
157 70
158 11
159 52
160 93
161 34
162 75
163 16
164 57
165 98
166 39
167 80
168 21
169 62
170 3
171 44
172 85
173 26
174 67
175 8
176 49
177 90
178 31
179 72
180 13
181 54
182 95
183 36
184 77
185 18
186 59
187 100
188 41
189 82
190 23
191 64
192 5
193 46
194 87
195 28
196 69
197 10
198 51
199 92
200 33
201 74
202 15
203 56
204 97
205 38
206 79
207 20
208 61
209 2
210 43
211 84
212 25
213 66
214 7
215 48
216 89
217 30
218 71
219 12
220 53
221 94
222 35
223 76
224 17
225 58
226 99
227 40
228 81
229 22
230 63
231 4
232 45
233 86
234 27
235 68
236 9
237 50
238 91
239 32
240 73
241 14
242 55
243 96
244 37
245 78
246 19
247 60
248 1
249 42
250 83
251 24
252 65
253 6
254 47
255 88
256 29
257 70
258 11
259 52
260 93
261 34
262 75
263 16
264 57
265 98
266 39
267 80
268 21
269 62
270 3
271 44
272 85
273 26
274 67
275 8
276 49
277 90
278 31
279 72
280 13
281 54
282 95
283 36
284 77
285 18
286 59
287 100
288 41
289 82
290 23
291 64
292 5
293 46
294 87
295 28
296 69
297 10
298 51
299 92
300 33
301 74
302 15
303 56
304 97
305 38
306 79
307 20
308 61
309 2
310 43
311 84
312 25
313 66
314 7
315 48
316 89
317 30
318 71
319 12
320 53
321 94
322 35
323 76
324 17
325 58
326 99
327 40
328 81
329 22
330 63
331 4
332 45
333 86
334 27
335 68
336 9
337 50
338 91
339 32
340 73
341 14
342 55
343 96
344 37
345 78
346 19
347 60
348 1
349 42
350 83
351 24
352 65
353 6
354 47
355 88
356 29
357 70
358 11
359 52
360 93
361 34
362 75
363 16
364 57
365 98
366 39
367 80
368 21
369 62
370 3
371 44
372 85
373 26
374 67
375 8
376 49
377 90
378 31
379 72
380 13
381 54
382 95
383 36
384 77
385 18
386 59
387 100
388 41
389 82
390 23
391 64
392 5
393 46
394 87
395 28
396 69
397 10
398 51
399 92
400 33
401 74
402 15
403 56
404 97
405 38
406 79
407 20
408 61
409 2
410 43
411 84
412 25
413 66
414 7
415 48
416 89
417 30
418 71
419 12
420 53
421 94
422 35
423 76
424 17
425 58
426 99
427 40
428 81
429 22
430 63
431 4
432 45
433 86
434 27
435 68
436 9
437 50
438 91
439 32
440 73
441 14
442 55
DEPOT_SECTION
1
-1
EOF
