single_objective/SL-DABL/OP/problems/op/OPLib-master/solutions/ea4op/gen4/pcb442-gen4-20.sol
NAME : pcb442
TYPE : OP
DIMENSION : 442
COST_LIMIT : 10156
ROUTE_NODES : 91
ROUTE_SCORE : 5650
ROUTE_COST : 10150
NODE_SEQUENCE_SECTION
1
2
3
4
37
38
71
72
73
74
42
43
76
77
78
79
80
81
82
83
84
52
20
21
54
55
87
88
89
57
25
26
27
28
29
30
31
32
376
377
33
65
64
96
379
95
94
93
101
111
123
133
146
158
169
182
196
207
206
217
404
409
408
233
225
216
204
192
180
167
394
395
179
398
191
190
189
177
165
164
163
393
138
392
152
389
387
115
104
67
35
-1
DEPOT_SECTION
1
-1
EOF
